(declare-sort Loc 0)
(declare-const l0 Loc)
(declare-const l1 Loc)
(declare-const l2 Loc)
(declare-const l3 Loc)
(declare-const l4 Loc)
(declare-const l5 Loc)
(declare-const l6 Loc)
(declare-const l7 Loc)
(declare-const l8 Loc)
(declare-const l9 Loc)
(declare-const l10 Loc)
(declare-const l11 Loc)
(declare-const l12 Loc)
(declare-const l13 Loc)
(declare-const l14 Loc)
(declare-const l15 Loc)
(declare-const l16 Loc)
(declare-const l17 Loc)
(declare-const l18 Loc)
(declare-const l19 Loc)
(declare-const l20 Loc)
(declare-const l21 Loc)
(declare-const l22 Loc)
(declare-const l23 Loc)
(declare-const l24 Loc)
(declare-const l25 Loc)
(declare-const l26 Loc)
(declare-const l27 Loc)
(declare-const l28 Loc)
(declare-const l29 Loc)
(assert (distinct l0 l1 l2 l3 l4 l5 l6 l7 l8 l9 l10 l11 l12 l13 l14 l15 l16 l17 l18 l19 l20 l21 l22 l23 l24 l25 l26 l27 l28 l29))

(define-fun cfg_init ( (pc Loc) (src Loc) (rel Bool) ) Bool
  (and (= pc src) rel))

(define-fun cfg_trans2 ( (pc Loc) (src Loc)
                         (pc1 Loc) (dst Loc)
                         (rel Bool) ) Bool
  (and (= pc src) (= pc1 dst) rel))

(define-fun cfg_trans3 ( (pc Loc) (exit Loc)
                         (pc1 Loc) (call Loc)
                         (pc2 Loc) (return Loc)
                         (rel Bool) ) Bool
  (and (= pc exit) (= pc1 call) (= pc2 return) rel))

(define-fun init_main ( (pc^0 Loc) (__const_50^0 Int) (__const_5^0 Int) (chkerr^0 Int) (i9^0 Int) (i^0 Int) (j10^0 Int) (j^0 Int) (k11^0 Int) (n8^0 Int) (n^0 Int) (nmax7^0 Int) (nmax^0 Int) (ret_ludcmp14^0 Int) (w12^0 Int) (w^0 Int) ) Bool
  (cfg_init pc^0 l29 true))

(define-fun next_main (
                 (pc^0 Loc) (__const_50^0 Int) (__const_5^0 Int) (chkerr^0 Int) (i9^0 Int) (i^0 Int) (j10^0 Int) (j^0 Int) (k11^0 Int) (n8^0 Int) (n^0 Int) (nmax7^0 Int) (nmax^0 Int) (ret_ludcmp14^0 Int) (w12^0 Int) (w^0 Int)
                 (pc^post Loc) (__const_50^post Int) (__const_5^post Int) (chkerr^post Int) (i9^post Int) (i^post Int) (j10^post Int) (j^post Int) (k11^post Int) (n8^post Int) (n^post Int) (nmax7^post Int) (nmax^post Int) (ret_ludcmp14^post Int) (w12^post Int) (w^post Int)
             ) Bool
  (or
    (cfg_trans2 pc^0 l0 pc^post l1 (and (and (and (and (and (and (and (and (and (and (and (and (and (and (= __const_5^0 __const_5^post) (= __const_50^0 __const_50^post)) (= chkerr^0 chkerr^post)) (= i^0 i^post)) (= i9^0 i9^post)) (= j^0 j^post)) (= j10^0 j10^post)) (= k11^0 k11^post)) (= n^0 n^post)) (= n8^0 n8^post)) (= nmax^0 nmax^post)) (= nmax7^0 nmax7^post)) (= ret_ludcmp14^0 ret_ludcmp14^post)) (= w^0 w^post)) (= w12^0 w12^post)))
    (cfg_trans2 pc^0 l2 pc^post l3 (and (and (and (and (and (and (and (and (and (and (and (and (and (and (and (<= (+ 1 n8^0) (+ 0 j10^0)) (= i9^post (+ -1 i9^0))) (= __const_5^0 __const_5^post)) (= __const_50^0 __const_50^post)) (= chkerr^0 chkerr^post)) (= i^0 i^post)) (= j^0 j^post)) (= j10^0 j10^post)) (= k11^0 k11^post)) (= n^0 n^post)) (= n8^0 n8^post)) (= nmax^0 nmax^post)) (= nmax7^0 nmax7^post)) (= ret_ludcmp14^0 ret_ludcmp14^post)) (= w^0 w^post)) (= w12^0 w12^post)))
    (cfg_trans2 pc^0 l2 pc^post l4 (and (and (and (and (and (and (and (and (and (and (and (and (and (and (and (<= (+ 0 j10^0) (+ 0 n8^0)) (= w12^post w12^post)) (= j10^post (+ 1 j10^0))) (= __const_5^0 __const_5^post)) (= __const_50^0 __const_50^post)) (= chkerr^0 chkerr^post)) (= i^0 i^post)) (= i9^0 i9^post)) (= j^0 j^post)) (= k11^0 k11^post)) (= n^0 n^post)) (= n8^0 n8^post)) (= nmax^0 nmax^post)) (= nmax7^0 nmax7^post)) (= ret_ludcmp14^0 ret_ludcmp14^post)) (= w^0 w^post)))
    (cfg_trans2 pc^0 l5 pc^post l6 (and (and (and (and (and (and (and (and (and (and (and (and (and (and (and (<= (+ 1 i9^0) 0) (= ret_ludcmp14^post 0)) (= chkerr^post (+ 0 ret_ludcmp14^post))) (= __const_5^0 __const_5^post)) (= __const_50^0 __const_50^post)) (= i^0 i^post)) (= i9^0 i9^post)) (= j^0 j^post)) (= j10^0 j10^post)) (= k11^0 k11^post)) (= n^0 n^post)) (= n8^0 n8^post)) (= nmax^0 nmax^post)) (= nmax7^0 nmax7^post)) (= w^0 w^post)) (= w12^0 w12^post)))
    (cfg_trans2 pc^0 l5 pc^post l4 (and (and (and (and (and (and (and (and (and (and (and (and (and (and (and (<= 0 (+ 0 i9^0)) (= w12^post w12^post)) (= j10^post (+ 1 i9^0))) (= __const_5^0 __const_5^post)) (= __const_50^0 __const_50^post)) (= chkerr^0 chkerr^post)) (= i^0 i^post)) (= i9^0 i9^post)) (= j^0 j^post)) (= k11^0 k11^post)) (= n^0 n^post)) (= n8^0 n8^post)) (= nmax^0 nmax^post)) (= nmax7^0 nmax7^post)) (= ret_ludcmp14^0 ret_ludcmp14^post)) (= w^0 w^post)))
    (cfg_trans2 pc^0 l7 pc^post l8 (and (and (and (and (and (and (and (and (and (and (and (and (and (and (= __const_5^0 __const_5^post) (= __const_50^0 __const_50^post)) (= chkerr^0 chkerr^post)) (= i^0 i^post)) (= i9^0 i9^post)) (= j^0 j^post)) (= j10^0 j10^post)) (= k11^0 k11^post)) (= n^0 n^post)) (= n8^0 n8^post)) (= nmax^0 nmax^post)) (= nmax7^0 nmax7^post)) (= ret_ludcmp14^0 ret_ludcmp14^post)) (= w^0 w^post)) (= w12^0 w12^post)))
    (cfg_trans2 pc^0 l9 pc^post l10 (and (and (and (and (and (and (and (and (and (and (and (and (and (and (and (<= (+ 0 i9^0) (+ 0 j10^0)) (= i9^post (+ 1 i9^0))) (= __const_5^0 __const_5^post)) (= __const_50^0 __const_50^post)) (= chkerr^0 chkerr^post)) (= i^0 i^post)) (= j^0 j^post)) (= j10^0 j10^post)) (= k11^0 k11^post)) (= n^0 n^post)) (= n8^0 n8^post)) (= nmax^0 nmax^post)) (= nmax7^0 nmax7^post)) (= ret_ludcmp14^0 ret_ludcmp14^post)) (= w^0 w^post)) (= w12^0 w12^post)))
    (cfg_trans2 pc^0 l9 pc^post l11 (and (and (and (and (and (and (and (and (and (and (and (and (and (and (and (<= (+ 1 j10^0) (+ 0 i9^0)) (= w12^post w12^post)) (= j10^post (+ 1 j10^0))) (= __const_5^0 __const_5^post)) (= __const_50^0 __const_50^post)) (= chkerr^0 chkerr^post)) (= i^0 i^post)) (= i9^0 i9^post)) (= j^0 j^post)) (= k11^0 k11^post)) (= n^0 n^post)) (= n8^0 n8^post)) (= nmax^0 nmax^post)) (= nmax7^0 nmax7^post)) (= ret_ludcmp14^0 ret_ludcmp14^post)) (= w^0 w^post)))
    (cfg_trans2 pc^0 l12 pc^post l13 (and (and (and (and (and (and (and (and (and (and (and (and (and (and (= __const_5^0 __const_5^post) (= __const_50^0 __const_50^post)) (= chkerr^0 chkerr^post)) (= i^0 i^post)) (= i9^0 i9^post)) (= j^0 j^post)) (= j10^0 j10^post)) (= k11^0 k11^post)) (= n^0 n^post)) (= n8^0 n8^post)) (= nmax^0 nmax^post)) (= nmax7^0 nmax7^post)) (= ret_ludcmp14^0 ret_ludcmp14^post)) (= w^0 w^post)) (= w12^0 w12^post)))
    (cfg_trans2 pc^0 l14 pc^post l3 (and (and (and (and (and (and (and (and (and (and (and (and (and (and (and (<= (+ 1 n8^0) (+ 0 i9^0)) (= i9^post (+ -1 n8^0))) (= __const_5^0 __const_5^post)) (= __const_50^0 __const_50^post)) (= chkerr^0 chkerr^post)) (= i^0 i^post)) (= j^0 j^post)) (= j10^0 j10^post)) (= k11^0 k11^post)) (= n^0 n^post)) (= n8^0 n8^post)) (= nmax^0 nmax^post)) (= nmax7^0 nmax7^post)) (= ret_ludcmp14^0 ret_ludcmp14^post)) (= w^0 w^post)) (= w12^0 w12^post)))
    (cfg_trans2 pc^0 l14 pc^post l11 (and (and (and (and (and (and (and (and (and (and (and (and (and (and (and (<= (+ 0 i9^0) (+ 0 n8^0)) (= w12^post w12^post)) (= j10^post 0)) (= __const_5^0 __const_5^post)) (= __const_50^0 __const_50^post)) (= chkerr^0 chkerr^post)) (= i^0 i^post)) (= i9^0 i9^post)) (= j^0 j^post)) (= k11^0 k11^post)) (= n^0 n^post)) (= n8^0 n8^post)) (= nmax^0 nmax^post)) (= nmax7^0 nmax7^post)) (= ret_ludcmp14^0 ret_ludcmp14^post)) (= w^0 w^post)))
    (cfg_trans2 pc^0 l15 pc^post l16 (and (and (and (and (and (and (and (and (and (and (and (and (and (and (= __const_5^0 __const_5^post) (= __const_50^0 __const_50^post)) (= chkerr^0 chkerr^post)) (= i^0 i^post)) (= i9^0 i9^post)) (= j^0 j^post)) (= j10^0 j10^post)) (= k11^0 k11^post)) (= n^0 n^post)) (= n8^0 n8^post)) (= nmax^0 nmax^post)) (= nmax7^0 nmax7^post)) (= ret_ludcmp14^0 ret_ludcmp14^post)) (= w^0 w^post)) (= w12^0 w12^post)))
    (cfg_trans2 pc^0 l16 pc^post l12 (and (and (and (and (and (and (and (and (and (and (and (and (and (and (and (<= (+ 1 i9^0) (+ 0 k11^0)) (= j10^post (+ 1 j10^0))) (= __const_5^0 __const_5^post)) (= __const_50^0 __const_50^post)) (= chkerr^0 chkerr^post)) (= i^0 i^post)) (= i9^0 i9^post)) (= j^0 j^post)) (= k11^0 k11^post)) (= n^0 n^post)) (= n8^0 n8^post)) (= nmax^0 nmax^post)) (= nmax7^0 nmax7^post)) (= ret_ludcmp14^0 ret_ludcmp14^post)) (= w^0 w^post)) (= w12^0 w12^post)))
    (cfg_trans2 pc^0 l16 pc^post l15 (and (and (and (and (and (and (and (and (and (and (and (and (and (and (and (<= (+ 0 k11^0) (+ 0 i9^0)) (= w12^post w12^post)) (= k11^post (+ 1 k11^0))) (= __const_5^0 __const_5^post)) (= __const_50^0 __const_50^post)) (= chkerr^0 chkerr^post)) (= i^0 i^post)) (= i9^0 i9^post)) (= j^0 j^post)) (= j10^0 j10^post)) (= n^0 n^post)) (= n8^0 n8^post)) (= nmax^0 nmax^post)) (= nmax7^0 nmax7^post)) (= ret_ludcmp14^0 ret_ludcmp14^post)) (= w^0 w^post)))
    (cfg_trans2 pc^0 l13 pc^post l17 (and (and (and (and (and (and (and (and (and (and (and (and (and (and (and (<= (+ 1 n8^0) (+ 0 j10^0)) (= i9^post (+ 1 i9^0))) (= __const_5^0 __const_5^post)) (= __const_50^0 __const_50^post)) (= chkerr^0 chkerr^post)) (= i^0 i^post)) (= j^0 j^post)) (= j10^0 j10^post)) (= k11^0 k11^post)) (= n^0 n^post)) (= n8^0 n8^post)) (= nmax^0 nmax^post)) (= nmax7^0 nmax7^post)) (= ret_ludcmp14^0 ret_ludcmp14^post)) (= w^0 w^post)) (= w12^0 w12^post)))
    (cfg_trans2 pc^0 l13 pc^post l15 (and (and (and (and (and (and (and (and (and (and (and (and (and (and (and (<= (+ 0 j10^0) (+ 0 n8^0)) (= w12^post w12^post)) (= k11^post 0)) (= __const_5^0 __const_5^post)) (= __const_50^0 __const_50^post)) (= chkerr^0 chkerr^post)) (= i^0 i^post)) (= i9^0 i9^post)) (= j^0 j^post)) (= j10^0 j10^post)) (= n^0 n^post)) (= n8^0 n8^post)) (= nmax^0 nmax^post)) (= nmax7^0 nmax7^post)) (= ret_ludcmp14^0 ret_ludcmp14^post)) (= w^0 w^post)))
    (cfg_trans2 pc^0 l10 pc^post l14 (and (and (and (and (and (and (and (and (and (and (and (and (and (and (= __const_5^0 __const_5^post) (= __const_50^0 __const_50^post)) (= chkerr^0 chkerr^post)) (= i^0 i^post)) (= i9^0 i9^post)) (= j^0 j^post)) (= j10^0 j10^post)) (= k11^0 k11^post)) (= n^0 n^post)) (= n8^0 n8^post)) (= nmax^0 nmax^post)) (= nmax7^0 nmax7^post)) (= ret_ludcmp14^0 ret_ludcmp14^post)) (= w^0 w^post)) (= w12^0 w12^post)))
    (cfg_trans2 pc^0 l18 pc^post l0 (and (and (and (and (and (and (and (and (and (and (and (and (and (and (= j10^post (+ 1 j10^0)) (= __const_5^0 __const_5^post)) (= __const_50^0 __const_50^post)) (= chkerr^0 chkerr^post)) (= i^0 i^post)) (= i9^0 i9^post)) (= j^0 j^post)) (= k11^0 k11^post)) (= n^0 n^post)) (= n8^0 n8^post)) (= nmax^0 nmax^post)) (= nmax7^0 nmax7^post)) (= ret_ludcmp14^0 ret_ludcmp14^post)) (= w^0 w^post)) (= w12^0 w12^post)))
    (cfg_trans2 pc^0 l8 pc^post l18 (and (and (and (and (and (and (and (and (and (and (and (and (and (and (and (<= (+ 0 i9^0) (+ 0 k11^0)) (= __const_5^0 __const_5^post)) (= __const_50^0 __const_50^post)) (= chkerr^0 chkerr^post)) (= i^0 i^post)) (= i9^0 i9^post)) (= j^0 j^post)) (= j10^0 j10^post)) (= k11^0 k11^post)) (= n^0 n^post)) (= n8^0 n8^post)) (= nmax^0 nmax^post)) (= nmax7^0 nmax7^post)) (= ret_ludcmp14^0 ret_ludcmp14^post)) (= w^0 w^post)) (= w12^0 w12^post)))
    (cfg_trans2 pc^0 l8 pc^post l7 (and (and (and (and (and (and (and (and (and (and (and (and (and (and (and (<= (+ 1 k11^0) (+ 0 i9^0)) (= w12^post w12^post)) (= k11^post (+ 1 k11^0))) (= __const_5^0 __const_5^post)) (= __const_50^0 __const_50^post)) (= chkerr^0 chkerr^post)) (= i^0 i^post)) (= i9^0 i9^post)) (= j^0 j^post)) (= j10^0 j10^post)) (= n^0 n^post)) (= n8^0 n8^post)) (= nmax^0 nmax^post)) (= nmax7^0 nmax7^post)) (= ret_ludcmp14^0 ret_ludcmp14^post)) (= w^0 w^post)))
    (cfg_trans2 pc^0 l19 pc^post l7 (and (and (and (and (and (and (and (and (and (and (and (and (and (and (= k11^post 0) (= __const_5^0 __const_5^post)) (= __const_50^0 __const_50^post)) (= chkerr^0 chkerr^post)) (= i^0 i^post)) (= i9^0 i9^post)) (= j^0 j^post)) (= j10^0 j10^post)) (= n^0 n^post)) (= n8^0 n8^post)) (= nmax^0 nmax^post)) (= nmax7^0 nmax7^post)) (= ret_ludcmp14^0 ret_ludcmp14^post)) (= w^0 w^post)) (= w12^0 w12^post)))
    (cfg_trans2 pc^0 l11 pc^post l9 (and (and (and (and (and (and (and (and (and (and (and (and (and (and (= __const_5^0 __const_5^post) (= __const_50^0 __const_50^post)) (= chkerr^0 chkerr^post)) (= i^0 i^post)) (= i9^0 i9^post)) (= j^0 j^post)) (= j10^0 j10^post)) (= k11^0 k11^post)) (= n^0 n^post)) (= n8^0 n8^post)) (= nmax^0 nmax^post)) (= nmax7^0 nmax7^post)) (= ret_ludcmp14^0 ret_ludcmp14^post)) (= w^0 w^post)) (= w12^0 w12^post)))
    (cfg_trans2 pc^0 l20 pc^post l18 (and (and (and (and (and (and (and (and (and (and (and (and (and (and (and (and (<= (+ 0 i9^0) 0) (<= 0 (+ 0 i9^0))) (= __const_5^0 __const_5^post)) (= __const_50^0 __const_50^post)) (= chkerr^0 chkerr^post)) (= i^0 i^post)) (= i9^0 i9^post)) (= j^0 j^post)) (= j10^0 j10^post)) (= k11^0 k11^post)) (= n^0 n^post)) (= n8^0 n8^post)) (= nmax^0 nmax^post)) (= nmax7^0 nmax7^post)) (= ret_ludcmp14^0 ret_ludcmp14^post)) (= w^0 w^post)) (= w12^0 w12^post)))
    (cfg_trans2 pc^0 l20 pc^post l19 (and (and (and (and (and (and (and (and (and (and (and (and (and (and (and (<= 1 (+ 0 i9^0)) (= __const_5^0 __const_5^post)) (= __const_50^0 __const_50^post)) (= chkerr^0 chkerr^post)) (= i^0 i^post)) (= i9^0 i9^post)) (= j^0 j^post)) (= j10^0 j10^post)) (= k11^0 k11^post)) (= n^0 n^post)) (= n8^0 n8^post)) (= nmax^0 nmax^post)) (= nmax7^0 nmax7^post)) (= ret_ludcmp14^0 ret_ludcmp14^post)) (= w^0 w^post)) (= w12^0 w12^post)))
    (cfg_trans2 pc^0 l20 pc^post l19 (and (and (and (and (and (and (and (and (and (and (and (and (and (and (and (<= (+ 1 i9^0) 0) (= __const_5^0 __const_5^post)) (= __const_50^0 __const_50^post)) (= chkerr^0 chkerr^post)) (= i^0 i^post)) (= i9^0 i9^post)) (= j^0 j^post)) (= j10^0 j10^post)) (= k11^0 k11^post)) (= n^0 n^post)) (= n8^0 n8^post)) (= nmax^0 nmax^post)) (= nmax7^0 nmax7^post)) (= ret_ludcmp14^0 ret_ludcmp14^post)) (= w^0 w^post)) (= w12^0 w12^post)))
    (cfg_trans2 pc^0 l1 pc^post l12 (and (and (and (and (and (and (and (and (and (and (and (and (and (and (and (<= (+ 1 n8^0) (+ 0 j10^0)) (= j10^post (+ 1 i9^0))) (= __const_5^0 __const_5^post)) (= __const_50^0 __const_50^post)) (= chkerr^0 chkerr^post)) (= i^0 i^post)) (= i9^0 i9^post)) (= j^0 j^post)) (= k11^0 k11^post)) (= n^0 n^post)) (= n8^0 n8^post)) (= nmax^0 nmax^post)) (= nmax7^0 nmax7^post)) (= ret_ludcmp14^0 ret_ludcmp14^post)) (= w^0 w^post)) (= w12^0 w12^post)))
    (cfg_trans2 pc^0 l1 pc^post l20 (and (and (and (and (and (and (and (and (and (and (and (and (and (and (and (<= (+ 0 j10^0) (+ 0 n8^0)) (= w12^post w12^post)) (= __const_5^0 __const_5^post)) (= __const_50^0 __const_50^post)) (= chkerr^0 chkerr^post)) (= i^0 i^post)) (= i9^0 i9^post)) (= j^0 j^post)) (= j10^0 j10^post)) (= k11^0 k11^post)) (= n^0 n^post)) (= n8^0 n8^post)) (= nmax^0 nmax^post)) (= nmax7^0 nmax7^post)) (= ret_ludcmp14^0 ret_ludcmp14^post)) (= w^0 w^post)))
    (cfg_trans2 pc^0 l21 pc^post l10 (and (and (and (and (and (and (and (and (and (and (and (and (and (and (and (<= (+ 0 n8^0) (+ 0 i9^0)) (= i9^post 1)) (= __const_5^0 __const_5^post)) (= __const_50^0 __const_50^post)) (= chkerr^0 chkerr^post)) (= i^0 i^post)) (= j^0 j^post)) (= j10^0 j10^post)) (= k11^0 k11^post)) (= n^0 n^post)) (= n8^0 n8^post)) (= nmax^0 nmax^post)) (= nmax7^0 nmax7^post)) (= ret_ludcmp14^0 ret_ludcmp14^post)) (= w^0 w^post)) (= w12^0 w12^post)))
    (cfg_trans2 pc^0 l21 pc^post l0 (and (and (and (and (and (and (and (and (and (and (and (and (and (and (and (<= (+ 1 i9^0) (+ 0 n8^0)) (= j10^post (+ 1 i9^0))) (= __const_5^0 __const_5^post)) (= __const_50^0 __const_50^post)) (= chkerr^0 chkerr^post)) (= i^0 i^post)) (= i9^0 i9^post)) (= j^0 j^post)) (= k11^0 k11^post)) (= n^0 n^post)) (= n8^0 n8^post)) (= nmax^0 nmax^post)) (= nmax7^0 nmax7^post)) (= ret_ludcmp14^0 ret_ludcmp14^post)) (= w^0 w^post)) (= w12^0 w12^post)))
    (cfg_trans2 pc^0 l3 pc^post l5 (and (and (and (and (and (and (and (and (and (and (and (and (and (and (= __const_5^0 __const_5^post) (= __const_50^0 __const_50^post)) (= chkerr^0 chkerr^post)) (= i^0 i^post)) (= i9^0 i9^post)) (= j^0 j^post)) (= j10^0 j10^post)) (= k11^0 k11^post)) (= n^0 n^post)) (= n8^0 n8^post)) (= nmax^0 nmax^post)) (= nmax7^0 nmax7^post)) (= ret_ludcmp14^0 ret_ludcmp14^post)) (= w^0 w^post)) (= w12^0 w12^post)))
    (cfg_trans2 pc^0 l22 pc^post l23 (and (and (and (and (and (and (and (and (and (and (and (and (and (and (= w^post w^post) (= j^post (+ 1 j^0))) (= __const_5^0 __const_5^post)) (= __const_50^0 __const_50^post)) (= chkerr^0 chkerr^post)) (= i^0 i^post)) (= i9^0 i9^post)) (= j10^0 j10^post)) (= k11^0 k11^post)) (= n^0 n^post)) (= n8^0 n8^post)) (= nmax^0 nmax^post)) (= nmax7^0 nmax7^post)) (= ret_ludcmp14^0 ret_ludcmp14^post)) (= w12^0 w12^post)))
    (cfg_trans2 pc^0 l24 pc^post l22 (and (and (and (and (and (and (and (and (and (and (and (and (and (and (and (<= (+ 1 j^0) (+ 0 i^0)) (= __const_5^0 __const_5^post)) (= __const_50^0 __const_50^post)) (= chkerr^0 chkerr^post)) (= i^0 i^post)) (= i9^0 i9^post)) (= j^0 j^post)) (= j10^0 j10^post)) (= k11^0 k11^post)) (= n^0 n^post)) (= n8^0 n8^post)) (= nmax^0 nmax^post)) (= nmax7^0 nmax7^post)) (= ret_ludcmp14^0 ret_ludcmp14^post)) (= w^0 w^post)) (= w12^0 w12^post)))
    (cfg_trans2 pc^0 l24 pc^post l22 (and (and (and (and (and (and (and (and (and (and (and (and (and (and (and (<= (+ 1 i^0) (+ 0 j^0)) (= __const_5^0 __const_5^post)) (= __const_50^0 __const_50^post)) (= chkerr^0 chkerr^post)) (= i^0 i^post)) (= i9^0 i9^post)) (= j^0 j^post)) (= j10^0 j10^post)) (= k11^0 k11^post)) (= n^0 n^post)) (= n8^0 n8^post)) (= nmax^0 nmax^post)) (= nmax7^0 nmax7^post)) (= ret_ludcmp14^0 ret_ludcmp14^post)) (= w^0 w^post)) (= w12^0 w12^post)))
    (cfg_trans2 pc^0 l24 pc^post l22 (and (and (and (and (and (and (and (and (and (and (and (and (and (and (and (and (<= (+ 0 i^0) (+ 0 j^0)) (<= (+ 0 j^0) (+ 0 i^0))) (= __const_5^0 __const_5^post)) (= __const_50^0 __const_50^post)) (= chkerr^0 chkerr^post)) (= i^0 i^post)) (= i9^0 i9^post)) (= j^0 j^post)) (= j10^0 j10^post)) (= k11^0 k11^post)) (= n^0 n^post)) (= n8^0 n8^post)) (= nmax^0 nmax^post)) (= nmax7^0 nmax7^post)) (= ret_ludcmp14^0 ret_ludcmp14^post)) (= w^0 w^post)) (= w12^0 w12^post)))
    (cfg_trans2 pc^0 l4 pc^post l2 (and (and (and (and (and (and (and (and (and (and (and (and (and (and (= __const_5^0 __const_5^post) (= __const_50^0 __const_50^post)) (= chkerr^0 chkerr^post)) (= i^0 i^post)) (= i9^0 i9^post)) (= j^0 j^post)) (= j10^0 j10^post)) (= k11^0 k11^post)) (= n^0 n^post)) (= n8^0 n8^post)) (= nmax^0 nmax^post)) (= nmax7^0 nmax7^post)) (= ret_ludcmp14^0 ret_ludcmp14^post)) (= w^0 w^post)) (= w12^0 w12^post)))
    (cfg_trans2 pc^0 l25 pc^post l26 (and (and (and (and (and (and (and (and (and (and (and (and (and (and (and (<= (+ 1 n^0) (+ 0 j^0)) (= i^post (+ 1 i^0))) (= __const_5^0 __const_5^post)) (= __const_50^0 __const_50^post)) (= chkerr^0 chkerr^post)) (= i9^0 i9^post)) (= j^0 j^post)) (= j10^0 j10^post)) (= k11^0 k11^post)) (= n^0 n^post)) (= n8^0 n8^post)) (= nmax^0 nmax^post)) (= nmax7^0 nmax7^post)) (= ret_ludcmp14^0 ret_ludcmp14^post)) (= w^0 w^post)) (= w12^0 w12^post)))
    (cfg_trans2 pc^0 l25 pc^post l24 (and (and (and (and (and (and (and (and (and (and (and (and (and (and (and (<= (+ 0 j^0) (+ 0 n^0)) (= __const_5^0 __const_5^post)) (= __const_50^0 __const_50^post)) (= chkerr^0 chkerr^post)) (= i^0 i^post)) (= i9^0 i9^post)) (= j^0 j^post)) (= j10^0 j10^post)) (= k11^0 k11^post)) (= n^0 n^post)) (= n8^0 n8^post)) (= nmax^0 nmax^post)) (= nmax7^0 nmax7^post)) (= ret_ludcmp14^0 ret_ludcmp14^post)) (= w^0 w^post)) (= w12^0 w12^post)))
    (cfg_trans2 pc^0 l27 pc^post l17 (and (and (and (and (and (and (and (and (and (and (and (and (and (and (and (<= (+ 1 n^0) (+ 0 i^0)) (= nmax7^post (+ 0 nmax^0))) (= n8^post (+ 0 n^0))) (= i9^post 0)) (= __const_5^0 __const_5^post)) (= __const_50^0 __const_50^post)) (= chkerr^0 chkerr^post)) (= i^0 i^post)) (= j^0 j^post)) (= j10^0 j10^post)) (= k11^0 k11^post)) (= n^0 n^post)) (= nmax^0 nmax^post)) (= ret_ludcmp14^0 ret_ludcmp14^post)) (= w^0 w^post)) (= w12^0 w12^post)))
    (cfg_trans2 pc^0 l27 pc^post l23 (and (and (and (and (and (and (and (and (and (and (and (and (and (and (and (<= (+ 0 i^0) (+ 0 n^0)) (= w^post 0)) (= j^post 0)) (= __const_5^0 __const_5^post)) (= __const_50^0 __const_50^post)) (= chkerr^0 chkerr^post)) (= i^0 i^post)) (= i9^0 i9^post)) (= j10^0 j10^post)) (= k11^0 k11^post)) (= n^0 n^post)) (= n8^0 n8^post)) (= nmax^0 nmax^post)) (= nmax7^0 nmax7^post)) (= ret_ludcmp14^0 ret_ludcmp14^post)) (= w12^0 w12^post)))
    (cfg_trans2 pc^0 l26 pc^post l27 (and (and (and (and (and (and (and (and (and (and (and (and (and (and (= __const_5^0 __const_5^post) (= __const_50^0 __const_50^post)) (= chkerr^0 chkerr^post)) (= i^0 i^post)) (= i9^0 i9^post)) (= j^0 j^post)) (= j10^0 j10^post)) (= k11^0 k11^post)) (= n^0 n^post)) (= n8^0 n8^post)) (= nmax^0 nmax^post)) (= nmax7^0 nmax7^post)) (= ret_ludcmp14^0 ret_ludcmp14^post)) (= w^0 w^post)) (= w12^0 w12^post)))
    (cfg_trans2 pc^0 l23 pc^post l25 (and (and (and (and (and (and (and (and (and (and (and (and (and (and (= __const_5^0 __const_5^post) (= __const_50^0 __const_50^post)) (= chkerr^0 chkerr^post)) (= i^0 i^post)) (= i9^0 i9^post)) (= j^0 j^post)) (= j10^0 j10^post)) (= k11^0 k11^post)) (= n^0 n^post)) (= n8^0 n8^post)) (= nmax^0 nmax^post)) (= nmax7^0 nmax7^post)) (= ret_ludcmp14^0 ret_ludcmp14^post)) (= w^0 w^post)) (= w12^0 w12^post)))
    (cfg_trans2 pc^0 l17 pc^post l21 (and (and (and (and (and (and (and (and (and (and (and (and (and (and (= __const_5^0 __const_5^post) (= __const_50^0 __const_50^post)) (= chkerr^0 chkerr^post)) (= i^0 i^post)) (= i9^0 i9^post)) (= j^0 j^post)) (= j10^0 j10^post)) (= k11^0 k11^post)) (= n^0 n^post)) (= n8^0 n8^post)) (= nmax^0 nmax^post)) (= nmax7^0 nmax7^post)) (= ret_ludcmp14^0 ret_ludcmp14^post)) (= w^0 w^post)) (= w12^0 w12^post)))
    (cfg_trans2 pc^0 l28 pc^post l26 (and (and (and (and (and (and (and (and (and (and (and (and (and (and (= nmax^post (+ 0 __const_50^0)) (= n^post (+ 0 __const_5^0))) (= i^post 0)) (= __const_5^0 __const_5^post)) (= __const_50^0 __const_50^post)) (= chkerr^0 chkerr^post)) (= i9^0 i9^post)) (= j^0 j^post)) (= j10^0 j10^post)) (= k11^0 k11^post)) (= n8^0 n8^post)) (= nmax7^0 nmax7^post)) (= ret_ludcmp14^0 ret_ludcmp14^post)) (= w^0 w^post)) (= w12^0 w12^post)))
    (cfg_trans2 pc^0 l29 pc^post l28 (and (and (and (and (and (and (and (and (and (and (and (and (and (and (= __const_5^0 __const_5^post) (= __const_50^0 __const_50^post)) (= chkerr^0 chkerr^post)) (= i^0 i^post)) (= i9^0 i9^post)) (= j^0 j^post)) (= j10^0 j10^post)) (= k11^0 k11^post)) (= n^0 n^post)) (= n8^0 n8^post)) (= nmax^0 nmax^post)) (= nmax7^0 nmax7^post)) (= ret_ludcmp14^0 ret_ludcmp14^post)) (= w^0 w^post)) (= w12^0 w12^post)))
  )
)
